(set-info :smt-lib-version 2.6)
(set-option :produce-assignments true)
(set-logic BPA)
(set-info :source | Kaya Guvendi and Ethan Bogle |)
(set-info :category "crafted")
(set-info :status unsat)
(declare-const arr Pointer)
(declare-const i0 Pointer)
(declare-const i1 Pointer)
(declare-const i2 Pointer)
(declare-const i3 Pointer)
(assert (not (= (+ (Base (Block i0)) (Offset i0)) 0)))
(assert (not (= (+ (Base (Block i1)) (Offset i1)) 0)))
(assert (not (= (+ (Base (Block i2)) (Offset i2)) 0)))
(assert (not (= (+ (Base (Block i3)) (Offset i3)) 0)))
(assert (=p i0 arr))
(assert (=p i1 (+p i0 1)))
(assert (=p i2 (+p i1 1)))
(assert (=p i3 (+p i2 1)))
(assert (and (<=p i0 (+p arr 2)) (<=p i1 (+p arr 2)) (<=p i2 (+p arr 2))))
(assert (<=p i3 (+p arr 2)))
(assert (<= (+ (+ (Base (Block arr)) (Offset arr)) (* 8 3)) 512))
(check-sat)
(exit)